NAME: test1396
TYPE: TSP
DIMENSION: 11
EDGE_WEIGHT_TYPE: EUC_2D
NODE_COORD_SECTION
1 13.075400792803393 34.69854895788437
2 74.1930137613552 92.36561612129603
3 71.6020182568438 54.10044680587996
4 93.19267112435209 82.19219054444237
5 31.6808906315027 81.29939278636304
6 71.9197156599297 96.15908090315702
7 76.88707567646986 78.21088600467321
8 16.12148297874001 32.188924308812695
9 62.20611121048116 42.822484705492606
10 1.817127187057932 15.365616074266308
11 54.1852528853702 7.267324034707046
EOF
